20
66.0
0 19 42.68 27.84
1 18 38.89 27.44
2 17 49.53 30.47
3 16 55.81 1.62
4 15 51.73 22.33
5 14 43.64 22.79
6 13 50.77 20.0
7 12 58.92 2.0
8 11 43.82 1.64
9 10 57.6 1.0
10 9 46.11 0.78
11 8 41.12 1.38
12 7 50.14 2.0
13 6 40.67 2.17
14 5 48.6 1.4
15 4 54.75 2.5
16 3 79.33 2.0
17 2 23.5 1.0
18 1 41.0 0.0
